INPUT_PARAMETERS
numAisles 8
numExtraCrossAisles 1
numShelves 3
minimumProductsRequired 1560
aisleWidth 3
rackDepth 1
locationWidth 1
crossAisleWidth 3
sourceToFirstCrossAisle 1

DATA
numLocationsPerAisleSide 33
totalLocations 1584
totalVertices 289
numProductVertices 264
numArtificialVertices 24
crossAislesPositions 0 16 32

all_locations_X_aislePos_Y_aisleSide_Z_shelf
0
1 0 0 0
2 0 0 1
3 0 0 2
4 1 0 0
5 1 0 1
6 1 0 2
7 2 0 0
8 2 0 1
9 2 0 2
10 3 0 0
11 3 0 1
12 3 0 2
13 4 0 0
14 4 0 1
15 4 0 2
16 5 0 0
17 5 0 1
18 5 0 2
19 6 0 0
20 6 0 1
21 6 0 2
22 7 0 0
23 7 0 1
24 7 0 2
25 8 0 0
26 8 0 1
27 8 0 2
28 9 0 0
29 9 0 1
30 9 0 2
31 10 0 0
32 10 0 1
33 10 0 2
34 11 0 0
35 11 0 1
36 11 0 2
37 12 0 0
38 12 0 1
39 12 0 2
40 13 0 0
41 13 0 1
42 13 0 2
43 14 0 0
44 14 0 1
45 14 0 2
46 15 0 0
47 15 0 1
48 15 0 2
49 16 0 0
50 16 0 1
51 16 0 2
52 17 0 0
53 17 0 1
54 17 0 2
55 18 0 0
56 18 0 1
57 18 0 2
58 19 0 0
59 19 0 1
60 19 0 2
61 20 0 0
62 20 0 1
63 20 0 2
64 21 0 0
65 21 0 1
66 21 0 2
67 22 0 0
68 22 0 1
69 22 0 2
70 23 0 0
71 23 0 1
72 23 0 2
73 24 0 0
74 24 0 1
75 24 0 2
76 25 0 0
77 25 0 1
78 25 0 2
79 26 0 0
80 26 0 1
81 26 0 2
82 27 0 0
83 27 0 1
84 27 0 2
85 28 0 0
86 28 0 1
87 28 0 2
88 29 0 0
89 29 0 1
90 29 0 2
91 30 0 0
92 30 0 1
93 30 0 2
94 31 0 0
95 31 0 1
96 31 0 2
97 32 0 0
98 32 0 1
99 32 0 2
100 0 1 0
101 0 1 1
102 0 1 2
103 1 1 0
104 1 1 1
105 1 1 2
106 2 1 0
107 2 1 1
108 2 1 2
109 3 1 0
110 3 1 1
111 3 1 2
112 4 1 0
113 4 1 1
114 4 1 2
115 5 1 0
116 5 1 1
117 5 1 2
118 6 1 0
119 6 1 1
120 6 1 2
121 7 1 0
122 7 1 1
123 7 1 2
124 8 1 0
125 8 1 1
126 8 1 2
127 9 1 0
128 9 1 1
129 9 1 2
130 10 1 0
131 10 1 1
132 10 1 2
133 11 1 0
134 11 1 1
135 11 1 2
136 12 1 0
137 12 1 1
138 12 1 2
139 13 1 0
140 13 1 1
141 13 1 2
142 14 1 0
143 14 1 1
144 14 1 2
145 15 1 0
146 15 1 1
147 15 1 2
148 16 1 0
149 16 1 1
150 16 1 2
151 17 1 0
152 17 1 1
153 17 1 2
154 18 1 0
155 18 1 1
156 18 1 2
157 19 1 0
158 19 1 1
159 19 1 2
160 20 1 0
161 20 1 1
162 20 1 2
163 21 1 0
164 21 1 1
165 21 1 2
166 22 1 0
167 22 1 1
168 22 1 2
169 23 1 0
170 23 1 1
171 23 1 2
172 24 1 0
173 24 1 1
174 24 1 2
175 25 1 0
176 25 1 1
177 25 1 2
178 26 1 0
179 26 1 1
180 26 1 2
181 27 1 0
182 27 1 1
183 27 1 2
184 28 1 0
185 28 1 1
186 28 1 2
187 29 1 0
188 29 1 1
189 29 1 2
190 30 1 0
191 30 1 1
192 30 1 2
193 31 1 0
194 31 1 1
195 31 1 2
196 32 1 0
197 32 1 1
198 32 1 2
199 0 2 0
200 0 2 1
201 0 2 2
202 1 2 0
203 1 2 1
204 1 2 2
205 2 2 0
206 2 2 1
207 2 2 2
208 3 2 0
209 3 2 1
210 3 2 2
211 4 2 0
212 4 2 1
213 4 2 2
214 5 2 0
215 5 2 1
216 5 2 2
217 6 2 0
218 6 2 1
219 6 2 2
220 7 2 0
221 7 2 1
222 7 2 2
223 8 2 0
224 8 2 1
225 8 2 2
226 9 2 0
227 9 2 1
228 9 2 2
229 10 2 0
230 10 2 1
231 10 2 2
232 11 2 0
233 11 2 1
234 11 2 2
235 12 2 0
236 12 2 1
237 12 2 2
238 13 2 0
239 13 2 1
240 13 2 2
241 14 2 0
242 14 2 1
243 14 2 2
244 15 2 0
245 15 2 1
246 15 2 2
247 16 2 0
248 16 2 1
249 16 2 2
250 17 2 0
251 17 2 1
252 17 2 2
253 18 2 0
254 18 2 1
255 18 2 2
256 19 2 0
257 19 2 1
258 19 2 2
259 20 2 0
260 20 2 1
261 20 2 2
262 21 2 0
263 21 2 1
264 21 2 2
265 22 2 0
266 22 2 1
267 22 2 2
268 23 2 0
269 23 2 1
270 23 2 2
271 24 2 0
272 24 2 1
273 24 2 2
274 25 2 0
275 25 2 1
276 25 2 2
277 26 2 0
278 26 2 1
279 26 2 2
280 27 2 0
281 27 2 1
282 27 2 2
283 28 2 0
284 28 2 1
285 28 2 2
286 29 2 0
287 29 2 1
288 29 2 2
289 30 2 0
290 30 2 1
291 30 2 2
292 31 2 0
293 31 2 1
294 31 2 2
295 32 2 0
296 32 2 1
297 32 2 2
298 0 3 0
299 0 3 1
300 0 3 2
301 1 3 0
302 1 3 1
303 1 3 2
304 2 3 0
305 2 3 1
306 2 3 2
307 3 3 0
308 3 3 1
309 3 3 2
310 4 3 0
311 4 3 1
312 4 3 2
313 5 3 0
314 5 3 1
315 5 3 2
316 6 3 0
317 6 3 1
318 6 3 2
319 7 3 0
320 7 3 1
321 7 3 2
322 8 3 0
323 8 3 1
324 8 3 2
325 9 3 0
326 9 3 1
327 9 3 2
328 10 3 0
329 10 3 1
330 10 3 2
331 11 3 0
332 11 3 1
333 11 3 2
334 12 3 0
335 12 3 1
336 12 3 2
337 13 3 0
338 13 3 1
339 13 3 2
340 14 3 0
341 14 3 1
342 14 3 2
343 15 3 0
344 15 3 1
345 15 3 2
346 16 3 0
347 16 3 1
348 16 3 2
349 17 3 0
350 17 3 1
351 17 3 2
352 18 3 0
353 18 3 1
354 18 3 2
355 19 3 0
356 19 3 1
357 19 3 2
358 20 3 0
359 20 3 1
360 20 3 2
361 21 3 0
362 21 3 1
363 21 3 2
364 22 3 0
365 22 3 1
366 22 3 2
367 23 3 0
368 23 3 1
369 23 3 2
370 24 3 0
371 24 3 1
372 24 3 2
373 25 3 0
374 25 3 1
375 25 3 2
376 26 3 0
377 26 3 1
378 26 3 2
379 27 3 0
380 27 3 1
381 27 3 2
382 28 3 0
383 28 3 1
384 28 3 2
385 29 3 0
386 29 3 1
387 29 3 2
388 30 3 0
389 30 3 1
390 30 3 2
391 31 3 0
392 31 3 1
393 31 3 2
394 32 3 0
395 32 3 1
396 32 3 2
397 0 4 0
398 0 4 1
399 0 4 2
400 1 4 0
401 1 4 1
402 1 4 2
403 2 4 0
404 2 4 1
405 2 4 2
406 3 4 0
407 3 4 1
408 3 4 2
409 4 4 0
410 4 4 1
411 4 4 2
412 5 4 0
413 5 4 1
414 5 4 2
415 6 4 0
416 6 4 1
417 6 4 2
418 7 4 0
419 7 4 1
420 7 4 2
421 8 4 0
422 8 4 1
423 8 4 2
424 9 4 0
425 9 4 1
426 9 4 2
427 10 4 0
428 10 4 1
429 10 4 2
430 11 4 0
431 11 4 1
432 11 4 2
433 12 4 0
434 12 4 1
435 12 4 2
436 13 4 0
437 13 4 1
438 13 4 2
439 14 4 0
440 14 4 1
441 14 4 2
442 15 4 0
443 15 4 1
444 15 4 2
445 16 4 0
446 16 4 1
447 16 4 2
448 17 4 0
449 17 4 1
450 17 4 2
451 18 4 0
452 18 4 1
453 18 4 2
454 19 4 0
455 19 4 1
456 19 4 2
457 20 4 0
458 20 4 1
459 20 4 2
460 21 4 0
461 21 4 1
462 21 4 2
463 22 4 0
464 22 4 1
465 22 4 2
466 23 4 0
467 23 4 1
468 23 4 2
469 24 4 0
470 24 4 1
471 24 4 2
472 25 4 0
473 25 4 1
474 25 4 2
475 26 4 0
476 26 4 1
477 26 4 2
478 27 4 0
479 27 4 1
480 27 4 2
481 28 4 0
482 28 4 1
483 28 4 2
484 29 4 0
485 29 4 1
486 29 4 2
487 30 4 0
488 30 4 1
489 30 4 2
490 31 4 0
491 31 4 1
492 31 4 2
493 32 4 0
494 32 4 1
495 32 4 2
496 0 5 0
497 0 5 1
498 0 5 2
499 1 5 0
500 1 5 1
501 1 5 2
502 2 5 0
503 2 5 1
504 2 5 2
505 3 5 0
506 3 5 1
507 3 5 2
508 4 5 0
509 4 5 1
510 4 5 2
511 5 5 0
512 5 5 1
513 5 5 2
514 6 5 0
515 6 5 1
516 6 5 2
517 7 5 0
518 7 5 1
519 7 5 2
520 8 5 0
521 8 5 1
522 8 5 2
523 9 5 0
524 9 5 1
525 9 5 2
526 10 5 0
527 10 5 1
528 10 5 2
529 11 5 0
530 11 5 1
531 11 5 2
532 12 5 0
533 12 5 1
534 12 5 2
535 13 5 0
536 13 5 1
537 13 5 2
538 14 5 0
539 14 5 1
540 14 5 2
541 15 5 0
542 15 5 1
543 15 5 2
544 16 5 0
545 16 5 1
546 16 5 2
547 17 5 0
548 17 5 1
549 17 5 2
550 18 5 0
551 18 5 1
552 18 5 2
553 19 5 0
554 19 5 1
555 19 5 2
556 20 5 0
557 20 5 1
558 20 5 2
559 21 5 0
560 21 5 1
561 21 5 2
562 22 5 0
563 22 5 1
564 22 5 2
565 23 5 0
566 23 5 1
567 23 5 2
568 24 5 0
569 24 5 1
570 24 5 2
571 25 5 0
572 25 5 1
573 25 5 2
574 26 5 0
575 26 5 1
576 26 5 2
577 27 5 0
578 27 5 1
579 27 5 2
580 28 5 0
581 28 5 1
582 28 5 2
583 29 5 0
584 29 5 1
585 29 5 2
586 30 5 0
587 30 5 1
588 30 5 2
589 31 5 0
590 31 5 1
591 31 5 2
592 32 5 0
593 32 5 1
594 32 5 2
595 0 6 0
596 0 6 1
597 0 6 2
598 1 6 0
599 1 6 1
600 1 6 2
601 2 6 0
602 2 6 1
603 2 6 2
604 3 6 0
605 3 6 1
606 3 6 2
607 4 6 0
608 4 6 1
609 4 6 2
610 5 6 0
611 5 6 1
612 5 6 2
613 6 6 0
614 6 6 1
615 6 6 2
616 7 6 0
617 7 6 1
618 7 6 2
619 8 6 0
620 8 6 1
621 8 6 2
622 9 6 0
623 9 6 1
624 9 6 2
625 10 6 0
626 10 6 1
627 10 6 2
628 11 6 0
629 11 6 1
630 11 6 2
631 12 6 0
632 12 6 1
633 12 6 2
634 13 6 0
635 13 6 1
636 13 6 2
637 14 6 0
638 14 6 1
639 14 6 2
640 15 6 0
641 15 6 1
642 15 6 2
643 16 6 0
644 16 6 1
645 16 6 2
646 17 6 0
647 17 6 1
648 17 6 2
649 18 6 0
650 18 6 1
651 18 6 2
652 19 6 0
653 19 6 1
654 19 6 2
655 20 6 0
656 20 6 1
657 20 6 2
658 21 6 0
659 21 6 1
660 21 6 2
661 22 6 0
662 22 6 1
663 22 6 2
664 23 6 0
665 23 6 1
666 23 6 2
667 24 6 0
668 24 6 1
669 24 6 2
670 25 6 0
671 25 6 1
672 25 6 2
673 26 6 0
674 26 6 1
675 26 6 2
676 27 6 0
677 27 6 1
678 27 6 2
679 28 6 0
680 28 6 1
681 28 6 2
682 29 6 0
683 29 6 1
684 29 6 2
685 30 6 0
686 30 6 1
687 30 6 2
688 31 6 0
689 31 6 1
690 31 6 2
691 32 6 0
692 32 6 1
693 32 6 2
694 0 7 0
695 0 7 1
696 0 7 2
697 1 7 0
698 1 7 1
699 1 7 2
700 2 7 0
701 2 7 1
702 2 7 2
703 3 7 0
704 3 7 1
705 3 7 2
706 4 7 0
707 4 7 1
708 4 7 2
709 5 7 0
710 5 7 1
711 5 7 2
712 6 7 0
713 6 7 1
714 6 7 2
715 7 7 0
716 7 7 1
717 7 7 2
718 8 7 0
719 8 7 1
720 8 7 2
721 9 7 0
722 9 7 1
723 9 7 2
724 10 7 0
725 10 7 1
726 10 7 2
727 11 7 0
728 11 7 1
729 11 7 2
730 12 7 0
731 12 7 1
732 12 7 2
733 13 7 0
734 13 7 1
735 13 7 2
736 14 7 0
737 14 7 1
738 14 7 2
739 15 7 0
740 15 7 1
741 15 7 2
742 16 7 0
743 16 7 1
744 16 7 2
745 17 7 0
746 17 7 1
747 17 7 2
748 18 7 0
749 18 7 1
750 18 7 2
751 19 7 0
752 19 7 1
753 19 7 2
754 20 7 0
755 20 7 1
756 20 7 2
757 21 7 0
758 21 7 1
759 21 7 2
760 22 7 0
761 22 7 1
762 22 7 2
763 23 7 0
764 23 7 1
765 23 7 2
766 24 7 0
767 24 7 1
768 24 7 2
769 25 7 0
770 25 7 1
771 25 7 2
772 26 7 0
773 26 7 1
774 26 7 2
775 27 7 0
776 27 7 1
777 27 7 2
778 28 7 0
779 28 7 1
780 28 7 2
781 29 7 0
782 29 7 1
783 29 7 2
784 30 7 0
785 30 7 1
786 30 7 2
787 31 7 0
788 31 7 1
789 31 7 2
790 32 7 0
791 32 7 1
792 32 7 2
793 0 8 0
794 0 8 1
795 0 8 2
796 1 8 0
797 1 8 1
798 1 8 2
799 2 8 0
800 2 8 1
801 2 8 2
802 3 8 0
803 3 8 1
804 3 8 2
805 4 8 0
806 4 8 1
807 4 8 2
808 5 8 0
809 5 8 1
810 5 8 2
811 6 8 0
812 6 8 1
813 6 8 2
814 7 8 0
815 7 8 1
816 7 8 2
817 8 8 0
818 8 8 1
819 8 8 2
820 9 8 0
821 9 8 1
822 9 8 2
823 10 8 0
824 10 8 1
825 10 8 2
826 11 8 0
827 11 8 1
828 11 8 2
829 12 8 0
830 12 8 1
831 12 8 2
832 13 8 0
833 13 8 1
834 13 8 2
835 14 8 0
836 14 8 1
837 14 8 2
838 15 8 0
839 15 8 1
840 15 8 2
841 16 8 0
842 16 8 1
843 16 8 2
844 17 8 0
845 17 8 1
846 17 8 2
847 18 8 0
848 18 8 1
849 18 8 2
850 19 8 0
851 19 8 1
852 19 8 2
853 20 8 0
854 20 8 1
855 20 8 2
856 21 8 0
857 21 8 1
858 21 8 2
859 22 8 0
860 22 8 1
861 22 8 2
862 23 8 0
863 23 8 1
864 23 8 2
865 24 8 0
866 24 8 1
867 24 8 2
868 25 8 0
869 25 8 1
870 25 8 2
871 26 8 0
872 26 8 1
873 26 8 2
874 27 8 0
875 27 8 1
876 27 8 2
877 28 8 0
878 28 8 1
879 28 8 2
880 29 8 0
881 29 8 1
882 29 8 2
883 30 8 0
884 30 8 1
885 30 8 2
886 31 8 0
887 31 8 1
888 31 8 2
889 32 8 0
890 32 8 1
891 32 8 2
892 0 9 0
893 0 9 1
894 0 9 2
895 1 9 0
896 1 9 1
897 1 9 2
898 2 9 0
899 2 9 1
900 2 9 2
901 3 9 0
902 3 9 1
903 3 9 2
904 4 9 0
905 4 9 1
906 4 9 2
907 5 9 0
908 5 9 1
909 5 9 2
910 6 9 0
911 6 9 1
912 6 9 2
913 7 9 0
914 7 9 1
915 7 9 2
916 8 9 0
917 8 9 1
918 8 9 2
919 9 9 0
920 9 9 1
921 9 9 2
922 10 9 0
923 10 9 1
924 10 9 2
925 11 9 0
926 11 9 1
927 11 9 2
928 12 9 0
929 12 9 1
930 12 9 2
931 13 9 0
932 13 9 1
933 13 9 2
934 14 9 0
935 14 9 1
936 14 9 2
937 15 9 0
938 15 9 1
939 15 9 2
940 16 9 0
941 16 9 1
942 16 9 2
943 17 9 0
944 17 9 1
945 17 9 2
946 18 9 0
947 18 9 1
948 18 9 2
949 19 9 0
950 19 9 1
951 19 9 2
952 20 9 0
953 20 9 1
954 20 9 2
955 21 9 0
956 21 9 1
957 21 9 2
958 22 9 0
959 22 9 1
960 22 9 2
961 23 9 0
962 23 9 1
963 23 9 2
964 24 9 0
965 24 9 1
966 24 9 2
967 25 9 0
968 25 9 1
969 25 9 2
970 26 9 0
971 26 9 1
972 26 9 2
973 27 9 0
974 27 9 1
975 27 9 2
976 28 9 0
977 28 9 1
978 28 9 2
979 29 9 0
980 29 9 1
981 29 9 2
982 30 9 0
983 30 9 1
984 30 9 2
985 31 9 0
986 31 9 1
987 31 9 2
988 32 9 0
989 32 9 1
990 32 9 2
991 0 10 0
992 0 10 1
993 0 10 2
994 1 10 0
995 1 10 1
996 1 10 2
997 2 10 0
998 2 10 1
999 2 10 2
1000 3 10 0
1001 3 10 1
1002 3 10 2
1003 4 10 0
1004 4 10 1
1005 4 10 2
1006 5 10 0
1007 5 10 1
1008 5 10 2
1009 6 10 0
1010 6 10 1
1011 6 10 2
1012 7 10 0
1013 7 10 1
1014 7 10 2
1015 8 10 0
1016 8 10 1
1017 8 10 2
1018 9 10 0
1019 9 10 1
1020 9 10 2
1021 10 10 0
1022 10 10 1
1023 10 10 2
1024 11 10 0
1025 11 10 1
1026 11 10 2
1027 12 10 0
1028 12 10 1
1029 12 10 2
1030 13 10 0
1031 13 10 1
1032 13 10 2
1033 14 10 0
1034 14 10 1
1035 14 10 2
1036 15 10 0
1037 15 10 1
1038 15 10 2
1039 16 10 0
1040 16 10 1
1041 16 10 2
1042 17 10 0
1043 17 10 1
1044 17 10 2
1045 18 10 0
1046 18 10 1
1047 18 10 2
1048 19 10 0
1049 19 10 1
1050 19 10 2
1051 20 10 0
1052 20 10 1
1053 20 10 2
1054 21 10 0
1055 21 10 1
1056 21 10 2
1057 22 10 0
1058 22 10 1
1059 22 10 2
1060 23 10 0
1061 23 10 1
1062 23 10 2
1063 24 10 0
1064 24 10 1
1065 24 10 2
1066 25 10 0
1067 25 10 1
1068 25 10 2
1069 26 10 0
1070 26 10 1
1071 26 10 2
1072 27 10 0
1073 27 10 1
1074 27 10 2
1075 28 10 0
1076 28 10 1
1077 28 10 2
1078 29 10 0
1079 29 10 1
1080 29 10 2
1081 30 10 0
1082 30 10 1
1083 30 10 2
1084 31 10 0
1085 31 10 1
1086 31 10 2
1087 32 10 0
1088 32 10 1
1089 32 10 2
1090 0 11 0
1091 0 11 1
1092 0 11 2
1093 1 11 0
1094 1 11 1
1095 1 11 2
1096 2 11 0
1097 2 11 1
1098 2 11 2
1099 3 11 0
1100 3 11 1
1101 3 11 2
1102 4 11 0
1103 4 11 1
1104 4 11 2
1105 5 11 0
1106 5 11 1
1107 5 11 2
1108 6 11 0
1109 6 11 1
1110 6 11 2
1111 7 11 0
1112 7 11 1
1113 7 11 2
1114 8 11 0
1115 8 11 1
1116 8 11 2
1117 9 11 0
1118 9 11 1
1119 9 11 2
1120 10 11 0
1121 10 11 1
1122 10 11 2
1123 11 11 0
1124 11 11 1
1125 11 11 2
1126 12 11 0
1127 12 11 1
1128 12 11 2
1129 13 11 0
1130 13 11 1
1131 13 11 2
1132 14 11 0
1133 14 11 1
1134 14 11 2
1135 15 11 0
1136 15 11 1
1137 15 11 2
1138 16 11 0
1139 16 11 1
1140 16 11 2
1141 17 11 0
1142 17 11 1
1143 17 11 2
1144 18 11 0
1145 18 11 1
1146 18 11 2
1147 19 11 0
1148 19 11 1
1149 19 11 2
1150 20 11 0
1151 20 11 1
1152 20 11 2
1153 21 11 0
1154 21 11 1
1155 21 11 2
1156 22 11 0
1157 22 11 1
1158 22 11 2
1159 23 11 0
1160 23 11 1
1161 23 11 2
1162 24 11 0
1163 24 11 1
1164 24 11 2
1165 25 11 0
1166 25 11 1
1167 25 11 2
1168 26 11 0
1169 26 11 1
1170 26 11 2
1171 27 11 0
1172 27 11 1
1173 27 11 2
1174 28 11 0
1175 28 11 1
1176 28 11 2
1177 29 11 0
1178 29 11 1
1179 29 11 2
1180 30 11 0
1181 30 11 1
1182 30 11 2
1183 31 11 0
1184 31 11 1
1185 31 11 2
1186 32 11 0
1187 32 11 1
1188 32 11 2
1189 0 12 0
1190 0 12 1
1191 0 12 2
1192 1 12 0
1193 1 12 1
1194 1 12 2
1195 2 12 0
1196 2 12 1
1197 2 12 2
1198 3 12 0
1199 3 12 1
1200 3 12 2
1201 4 12 0
1202 4 12 1
1203 4 12 2
1204 5 12 0
1205 5 12 1
1206 5 12 2
1207 6 12 0
1208 6 12 1
1209 6 12 2
1210 7 12 0
1211 7 12 1
1212 7 12 2
1213 8 12 0
1214 8 12 1
1215 8 12 2
1216 9 12 0
1217 9 12 1
1218 9 12 2
1219 10 12 0
1220 10 12 1
1221 10 12 2
1222 11 12 0
1223 11 12 1
1224 11 12 2
1225 12 12 0
1226 12 12 1
1227 12 12 2
1228 13 12 0
1229 13 12 1
1230 13 12 2
1231 14 12 0
1232 14 12 1
1233 14 12 2
1234 15 12 0
1235 15 12 1
1236 15 12 2
1237 16 12 0
1238 16 12 1
1239 16 12 2
1240 17 12 0
1241 17 12 1
1242 17 12 2
1243 18 12 0
1244 18 12 1
1245 18 12 2
1246 19 12 0
1247 19 12 1
1248 19 12 2
1249 20 12 0
1250 20 12 1
1251 20 12 2
1252 21 12 0
1253 21 12 1
1254 21 12 2
1255 22 12 0
1256 22 12 1
1257 22 12 2
1258 23 12 0
1259 23 12 1
1260 23 12 2
1261 24 12 0
1262 24 12 1
1263 24 12 2
1264 25 12 0
1265 25 12 1
1266 25 12 2
1267 26 12 0
1268 26 12 1
1269 26 12 2
1270 27 12 0
1271 27 12 1
1272 27 12 2
1273 28 12 0
1274 28 12 1
1275 28 12 2
1276 29 12 0
1277 29 12 1
1278 29 12 2
1279 30 12 0
1280 30 12 1
1281 30 12 2
1282 31 12 0
1283 31 12 1
1284 31 12 2
1285 32 12 0
1286 32 12 1
1287 32 12 2
1288 0 13 0
1289 0 13 1
1290 0 13 2
1291 1 13 0
1292 1 13 1
1293 1 13 2
1294 2 13 0
1295 2 13 1
1296 2 13 2
1297 3 13 0
1298 3 13 1
1299 3 13 2
1300 4 13 0
1301 4 13 1
1302 4 13 2
1303 5 13 0
1304 5 13 1
1305 5 13 2
1306 6 13 0
1307 6 13 1
1308 6 13 2
1309 7 13 0
1310 7 13 1
1311 7 13 2
1312 8 13 0
1313 8 13 1
1314 8 13 2
1315 9 13 0
1316 9 13 1
1317 9 13 2
1318 10 13 0
1319 10 13 1
1320 10 13 2
1321 11 13 0
1322 11 13 1
1323 11 13 2
1324 12 13 0
1325 12 13 1
1326 12 13 2
1327 13 13 0
1328 13 13 1
1329 13 13 2
1330 14 13 0
1331 14 13 1
1332 14 13 2
1333 15 13 0
1334 15 13 1
1335 15 13 2
1336 16 13 0
1337 16 13 1
1338 16 13 2
1339 17 13 0
1340 17 13 1
1341 17 13 2
1342 18 13 0
1343 18 13 1
1344 18 13 2
1345 19 13 0
1346 19 13 1
1347 19 13 2
1348 20 13 0
1349 20 13 1
1350 20 13 2
1351 21 13 0
1352 21 13 1
1353 21 13 2
1354 22 13 0
1355 22 13 1
1356 22 13 2
1357 23 13 0
1358 23 13 1
1359 23 13 2
1360 24 13 0
1361 24 13 1
1362 24 13 2
1363 25 13 0
1364 25 13 1
1365 25 13 2
1366 26 13 0
1367 26 13 1
1368 26 13 2
1369 27 13 0
1370 27 13 1
1371 27 13 2
1372 28 13 0
1373 28 13 1
1374 28 13 2
1375 29 13 0
1376 29 13 1
1377 29 13 2
1378 30 13 0
1379 30 13 1
1380 30 13 2
1381 31 13 0
1382 31 13 1
1383 31 13 2
1384 32 13 0
1385 32 13 1
1386 32 13 2
1387 0 14 0
1388 0 14 1
1389 0 14 2
1390 1 14 0
1391 1 14 1
1392 1 14 2
1393 2 14 0
1394 2 14 1
1395 2 14 2
1396 3 14 0
1397 3 14 1
1398 3 14 2
1399 4 14 0
1400 4 14 1
1401 4 14 2
1402 5 14 0
1403 5 14 1
1404 5 14 2
1405 6 14 0
1406 6 14 1
1407 6 14 2
1408 7 14 0
1409 7 14 1
1410 7 14 2
1411 8 14 0
1412 8 14 1
1413 8 14 2
1414 9 14 0
1415 9 14 1
1416 9 14 2
1417 10 14 0
1418 10 14 1
1419 10 14 2
1420 11 14 0
1421 11 14 1
1422 11 14 2
1423 12 14 0
1424 12 14 1
1425 12 14 2
1426 13 14 0
1427 13 14 1
1428 13 14 2
1429 14 14 0
1430 14 14 1
1431 14 14 2
1432 15 14 0
1433 15 14 1
1434 15 14 2
1435 16 14 0
1436 16 14 1
1437 16 14 2
1438 17 14 0
1439 17 14 1
1440 17 14 2
1441 18 14 0
1442 18 14 1
1443 18 14 2
1444 19 14 0
1445 19 14 1
1446 19 14 2
1447 20 14 0
1448 20 14 1
1449 20 14 2
1450 21 14 0
1451 21 14 1
1452 21 14 2
1453 22 14 0
1454 22 14 1
1455 22 14 2
1456 23 14 0
1457 23 14 1
1458 23 14 2
1459 24 14 0
1460 24 14 1
1461 24 14 2
1462 25 14 0
1463 25 14 1
1464 25 14 2
1465 26 14 0
1466 26 14 1
1467 26 14 2
1468 27 14 0
1469 27 14 1
1470 27 14 2
1471 28 14 0
1472 28 14 1
1473 28 14 2
1474 29 14 0
1475 29 14 1
1476 29 14 2
1477 30 14 0
1478 30 14 1
1479 30 14 2
1480 31 14 0
1481 31 14 1
1482 31 14 2
1483 32 14 0
1484 32 14 1
1485 32 14 2
1486 0 15 0
1487 0 15 1
1488 0 15 2
1489 1 15 0
1490 1 15 1
1491 1 15 2
1492 2 15 0
1493 2 15 1
1494 2 15 2
1495 3 15 0
1496 3 15 1
1497 3 15 2
1498 4 15 0
1499 4 15 1
1500 4 15 2
1501 5 15 0
1502 5 15 1
1503 5 15 2
1504 6 15 0
1505 6 15 1
1506 6 15 2
1507 7 15 0
1508 7 15 1
1509 7 15 2
1510 8 15 0
1511 8 15 1
1512 8 15 2
1513 9 15 0
1514 9 15 1
1515 9 15 2
1516 10 15 0
1517 10 15 1
1518 10 15 2
1519 11 15 0
1520 11 15 1
1521 11 15 2
1522 12 15 0
1523 12 15 1
1524 12 15 2
1525 13 15 0
1526 13 15 1
1527 13 15 2
1528 14 15 0
1529 14 15 1
1530 14 15 2
1531 15 15 0
1532 15 15 1
1533 15 15 2
1534 16 15 0
1535 16 15 1
1536 16 15 2
1537 17 15 0
1538 17 15 1
1539 17 15 2
1540 18 15 0
1541 18 15 1
1542 18 15 2
1543 19 15 0
1544 19 15 1
1545 19 15 2
1546 20 15 0
1547 20 15 1
1548 20 15 2
1549 21 15 0
1550 21 15 1
1551 21 15 2
1552 22 15 0
1553 22 15 1
1554 22 15 2
1555 23 15 0
1556 23 15 1
1557 23 15 2
1558 24 15 0
1559 24 15 1
1560 24 15 2
1561 25 15 0
1562 25 15 1
1563 25 15 2
1564 26 15 0
1565 26 15 1
1566 26 15 2
1567 27 15 0
1568 27 15 1
1569 27 15 2
1570 28 15 0
1571 28 15 1
1572 28 15 2
1573 29 15 0
1574 29 15 1
1575 29 15 2
1576 30 15 0
1577 30 15 1
1578 30 15 2
1579 31 15 0
1580 31 15 1
1581 31 15 2
1582 32 15 0
1583 32 15 1
1584 32 15 2


position_product_vertices_X_aislePos_Y_aisle
1 0 0
2 1 0
3 2 0
4 3 0
5 4 0
6 5 0
7 6 0
8 7 0
9 8 0
10 9 0
11 10 0
12 11 0
13 12 0
14 13 0
15 14 0
16 15 0
17 16 0
18 17 0
19 18 0
20 19 0
21 20 0
22 21 0
23 22 0
24 23 0
25 24 0
26 25 0
27 26 0
28 27 0
29 28 0
30 29 0
31 30 0
32 31 0
33 32 0
34 0 1
35 1 1
36 2 1
37 3 1
38 4 1
39 5 1
40 6 1
41 7 1
42 8 1
43 9 1
44 10 1
45 11 1
46 12 1
47 13 1
48 14 1
49 15 1
50 16 1
51 17 1
52 18 1
53 19 1
54 20 1
55 21 1
56 22 1
57 23 1
58 24 1
59 25 1
60 26 1
61 27 1
62 28 1
63 29 1
64 30 1
65 31 1
66 32 1
67 0 2
68 1 2
69 2 2
70 3 2
71 4 2
72 5 2
73 6 2
74 7 2
75 8 2
76 9 2
77 10 2
78 11 2
79 12 2
80 13 2
81 14 2
82 15 2
83 16 2
84 17 2
85 18 2
86 19 2
87 20 2
88 21 2
89 22 2
90 23 2
91 24 2
92 25 2
93 26 2
94 27 2
95 28 2
96 29 2
97 30 2
98 31 2
99 32 2
100 0 3
101 1 3
102 2 3
103 3 3
104 4 3
105 5 3
106 6 3
107 7 3
108 8 3
109 9 3
110 10 3
111 11 3
112 12 3
113 13 3
114 14 3
115 15 3
116 16 3
117 17 3
118 18 3
119 19 3
120 20 3
121 21 3
122 22 3
123 23 3
124 24 3
125 25 3
126 26 3
127 27 3
128 28 3
129 29 3
130 30 3
131 31 3
132 32 3
133 0 4
134 1 4
135 2 4
136 3 4
137 4 4
138 5 4
139 6 4
140 7 4
141 8 4
142 9 4
143 10 4
144 11 4
145 12 4
146 13 4
147 14 4
148 15 4
149 16 4
150 17 4
151 18 4
152 19 4
153 20 4
154 21 4
155 22 4
156 23 4
157 24 4
158 25 4
159 26 4
160 27 4
161 28 4
162 29 4
163 30 4
164 31 4
165 32 4
166 0 5
167 1 5
168 2 5
169 3 5
170 4 5
171 5 5
172 6 5
173 7 5
174 8 5
175 9 5
176 10 5
177 11 5
178 12 5
179 13 5
180 14 5
181 15 5
182 16 5
183 17 5
184 18 5
185 19 5
186 20 5
187 21 5
188 22 5
189 23 5
190 24 5
191 25 5
192 26 5
193 27 5
194 28 5
195 29 5
196 30 5
197 31 5
198 32 5
199 0 6
200 1 6
201 2 6
202 3 6
203 4 6
204 5 6
205 6 6
206 7 6
207 8 6
208 9 6
209 10 6
210 11 6
211 12 6
212 13 6
213 14 6
214 15 6
215 16 6
216 17 6
217 18 6
218 19 6
219 20 6
220 21 6
221 22 6
222 23 6
223 24 6
224 25 6
225 26 6
226 27 6
227 28 6
228 29 6
229 30 6
230 31 6
231 32 6
232 0 7
233 1 7
234 2 7
235 3 7
236 4 7
237 5 7
238 6 7
239 7 7
240 8 7
241 9 7
242 10 7
243 11 7
244 12 7
245 13 7
246 14 7
247 15 7
248 16 7
249 17 7
250 18 7
251 19 7
252 20 7
253 21 7
254 22 7
255 23 7
256 24 7
257 25 7
258 26 7
259 27 7
260 28 7
261 29 7
262 30 7
263 31 7
264 32 7


position_artificial_vertices_aisle_block
265 0 0
266 0 1
267 0 2
268 0 3
269 0 4
270 0 5
271 0 6
272 0 7
273 1 0
274 1 1
275 1 2
276 1 3
277 1 4
278 1 5
279 1 6
280 1 7
281 2 0
282 2 1
283 2 2
284 2 3
285 2 4
286 2 5
287 2 6
288 2 7


vertices_pick_which_locations
0 source
1 6 1 2 3 100 101 102
2 6 4 5 6 103 104 105
3 6 7 8 9 106 107 108
4 6 10 11 12 109 110 111
5 6 13 14 15 112 113 114
6 6 16 17 18 115 116 117
7 6 19 20 21 118 119 120
8 6 22 23 24 121 122 123
9 6 25 26 27 124 125 126
10 6 28 29 30 127 128 129
11 6 31 32 33 130 131 132
12 6 34 35 36 133 134 135
13 6 37 38 39 136 137 138
14 6 40 41 42 139 140 141
15 6 43 44 45 142 143 144
16 6 46 47 48 145 146 147
17 6 49 50 51 148 149 150
18 6 52 53 54 151 152 153
19 6 55 56 57 154 155 156
20 6 58 59 60 157 158 159
21 6 61 62 63 160 161 162
22 6 64 65 66 163 164 165
23 6 67 68 69 166 167 168
24 6 70 71 72 169 170 171
25 6 73 74 75 172 173 174
26 6 76 77 78 175 176 177
27 6 79 80 81 178 179 180
28 6 82 83 84 181 182 183
29 6 85 86 87 184 185 186
30 6 88 89 90 187 188 189
31 6 91 92 93 190 191 192
32 6 94 95 96 193 194 195
33 6 97 98 99 196 197 198
34 6 199 200 201 298 299 300
35 6 202 203 204 301 302 303
36 6 205 206 207 304 305 306
37 6 208 209 210 307 308 309
38 6 211 212 213 310 311 312
39 6 214 215 216 313 314 315
40 6 217 218 219 316 317 318
41 6 220 221 222 319 320 321
42 6 223 224 225 322 323 324
43 6 226 227 228 325 326 327
44 6 229 230 231 328 329 330
45 6 232 233 234 331 332 333
46 6 235 236 237 334 335 336
47 6 238 239 240 337 338 339
48 6 241 242 243 340 341 342
49 6 244 245 246 343 344 345
50 6 247 248 249 346 347 348
51 6 250 251 252 349 350 351
52 6 253 254 255 352 353 354
53 6 256 257 258 355 356 357
54 6 259 260 261 358 359 360
55 6 262 263 264 361 362 363
56 6 265 266 267 364 365 366
57 6 268 269 270 367 368 369
58 6 271 272 273 370 371 372
59 6 274 275 276 373 374 375
60 6 277 278 279 376 377 378
61 6 280 281 282 379 380 381
62 6 283 284 285 382 383 384
63 6 286 287 288 385 386 387
64 6 289 290 291 388 389 390
65 6 292 293 294 391 392 393
66 6 295 296 297 394 395 396
67 6 397 398 399 496 497 498
68 6 400 401 402 499 500 501
69 6 403 404 405 502 503 504
70 6 406 407 408 505 506 507
71 6 409 410 411 508 509 510
72 6 412 413 414 511 512 513
73 6 415 416 417 514 515 516
74 6 418 419 420 517 518 519
75 6 421 422 423 520 521 522
76 6 424 425 426 523 524 525
77 6 427 428 429 526 527 528
78 6 430 431 432 529 530 531
79 6 433 434 435 532 533 534
80 6 436 437 438 535 536 537
81 6 439 440 441 538 539 540
82 6 442 443 444 541 542 543
83 6 445 446 447 544 545 546
84 6 448 449 450 547 548 549
85 6 451 452 453 550 551 552
86 6 454 455 456 553 554 555
87 6 457 458 459 556 557 558
88 6 460 461 462 559 560 561
89 6 463 464 465 562 563 564
90 6 466 467 468 565 566 567
91 6 469 470 471 568 569 570
92 6 472 473 474 571 572 573
93 6 475 476 477 574 575 576
94 6 478 479 480 577 578 579
95 6 481 482 483 580 581 582
96 6 484 485 486 583 584 585
97 6 487 488 489 586 587 588
98 6 490 491 492 589 590 591
99 6 493 494 495 592 593 594
100 6 595 596 597 694 695 696
101 6 598 599 600 697 698 699
102 6 601 602 603 700 701 702
103 6 604 605 606 703 704 705
104 6 607 608 609 706 707 708
105 6 610 611 612 709 710 711
106 6 613 614 615 712 713 714
107 6 616 617 618 715 716 717
108 6 619 620 621 718 719 720
109 6 622 623 624 721 722 723
110 6 625 626 627 724 725 726
111 6 628 629 630 727 728 729
112 6 631 632 633 730 731 732
113 6 634 635 636 733 734 735
114 6 637 638 639 736 737 738
115 6 640 641 642 739 740 741
116 6 643 644 645 742 743 744
117 6 646 647 648 745 746 747
118 6 649 650 651 748 749 750
119 6 652 653 654 751 752 753
120 6 655 656 657 754 755 756
121 6 658 659 660 757 758 759
122 6 661 662 663 760 761 762
123 6 664 665 666 763 764 765
124 6 667 668 669 766 767 768
125 6 670 671 672 769 770 771
126 6 673 674 675 772 773 774
127 6 676 677 678 775 776 777
128 6 679 680 681 778 779 780
129 6 682 683 684 781 782 783
130 6 685 686 687 784 785 786
131 6 688 689 690 787 788 789
132 6 691 692 693 790 791 792
133 6 793 794 795 892 893 894
134 6 796 797 798 895 896 897
135 6 799 800 801 898 899 900
136 6 802 803 804 901 902 903
137 6 805 806 807 904 905 906
138 6 808 809 810 907 908 909
139 6 811 812 813 910 911 912
140 6 814 815 816 913 914 915
141 6 817 818 819 916 917 918
142 6 820 821 822 919 920 921
143 6 823 824 825 922 923 924
144 6 826 827 828 925 926 927
145 6 829 830 831 928 929 930
146 6 832 833 834 931 932 933
147 6 835 836 837 934 935 936
148 6 838 839 840 937 938 939
149 6 841 842 843 940 941 942
150 6 844 845 846 943 944 945
151 6 847 848 849 946 947 948
152 6 850 851 852 949 950 951
153 6 853 854 855 952 953 954
154 6 856 857 858 955 956 957
155 6 859 860 861 958 959 960
156 6 862 863 864 961 962 963
157 6 865 866 867 964 965 966
158 6 868 869 870 967 968 969
159 6 871 872 873 970 971 972
160 6 874 875 876 973 974 975
161 6 877 878 879 976 977 978
162 6 880 881 882 979 980 981
163 6 883 884 885 982 983 984
164 6 886 887 888 985 986 987
165 6 889 890 891 988 989 990
166 6 991 992 993 1090 1091 1092
167 6 994 995 996 1093 1094 1095
168 6 997 998 999 1096 1097 1098
169 6 1000 1001 1002 1099 1100 1101
170 6 1003 1004 1005 1102 1103 1104
171 6 1006 1007 1008 1105 1106 1107
172 6 1009 1010 1011 1108 1109 1110
173 6 1012 1013 1014 1111 1112 1113
174 6 1015 1016 1017 1114 1115 1116
175 6 1018 1019 1020 1117 1118 1119
176 6 1021 1022 1023 1120 1121 1122
177 6 1024 1025 1026 1123 1124 1125
178 6 1027 1028 1029 1126 1127 1128
179 6 1030 1031 1032 1129 1130 1131
180 6 1033 1034 1035 1132 1133 1134
181 6 1036 1037 1038 1135 1136 1137
182 6 1039 1040 1041 1138 1139 1140
183 6 1042 1043 1044 1141 1142 1143
184 6 1045 1046 1047 1144 1145 1146
185 6 1048 1049 1050 1147 1148 1149
186 6 1051 1052 1053 1150 1151 1152
187 6 1054 1055 1056 1153 1154 1155
188 6 1057 1058 1059 1156 1157 1158
189 6 1060 1061 1062 1159 1160 1161
190 6 1063 1064 1065 1162 1163 1164
191 6 1066 1067 1068 1165 1166 1167
192 6 1069 1070 1071 1168 1169 1170
193 6 1072 1073 1074 1171 1172 1173
194 6 1075 1076 1077 1174 1175 1176
195 6 1078 1079 1080 1177 1178 1179
196 6 1081 1082 1083 1180 1181 1182
197 6 1084 1085 1086 1183 1184 1185
198 6 1087 1088 1089 1186 1187 1188
199 6 1189 1190 1191 1288 1289 1290
200 6 1192 1193 1194 1291 1292 1293
201 6 1195 1196 1197 1294 1295 1296
202 6 1198 1199 1200 1297 1298 1299
203 6 1201 1202 1203 1300 1301 1302
204 6 1204 1205 1206 1303 1304 1305
205 6 1207 1208 1209 1306 1307 1308
206 6 1210 1211 1212 1309 1310 1311
207 6 1213 1214 1215 1312 1313 1314
208 6 1216 1217 1218 1315 1316 1317
209 6 1219 1220 1221 1318 1319 1320
210 6 1222 1223 1224 1321 1322 1323
211 6 1225 1226 1227 1324 1325 1326
212 6 1228 1229 1230 1327 1328 1329
213 6 1231 1232 1233 1330 1331 1332
214 6 1234 1235 1236 1333 1334 1335
215 6 1237 1238 1239 1336 1337 1338
216 6 1240 1241 1242 1339 1340 1341
217 6 1243 1244 1245 1342 1343 1344
218 6 1246 1247 1248 1345 1346 1347
219 6 1249 1250 1251 1348 1349 1350
220 6 1252 1253 1254 1351 1352 1353
221 6 1255 1256 1257 1354 1355 1356
222 6 1258 1259 1260 1357 1358 1359
223 6 1261 1262 1263 1360 1361 1362
224 6 1264 1265 1266 1363 1364 1365
225 6 1267 1268 1269 1366 1367 1368
226 6 1270 1271 1272 1369 1370 1371
227 6 1273 1274 1275 1372 1373 1374
228 6 1276 1277 1278 1375 1376 1377
229 6 1279 1280 1281 1378 1379 1380
230 6 1282 1283 1284 1381 1382 1383
231 6 1285 1286 1287 1384 1385 1386
232 6 1387 1388 1389 1486 1487 1488
233 6 1390 1391 1392 1489 1490 1491
234 6 1393 1394 1395 1492 1493 1494
235 6 1396 1397 1398 1495 1496 1497
236 6 1399 1400 1401 1498 1499 1500
237 6 1402 1403 1404 1501 1502 1503
238 6 1405 1406 1407 1504 1505 1506
239 6 1408 1409 1410 1507 1508 1509
240 6 1411 1412 1413 1510 1511 1512
241 6 1414 1415 1416 1513 1514 1515
242 6 1417 1418 1419 1516 1517 1518
243 6 1420 1421 1422 1519 1520 1521
244 6 1423 1424 1425 1522 1523 1524
245 6 1426 1427 1428 1525 1526 1527
246 6 1429 1430 1431 1528 1529 1530
247 6 1432 1433 1434 1531 1532 1533
248 6 1435 1436 1437 1534 1535 1536
249 6 1438 1439 1440 1537 1538 1539
250 6 1441 1442 1443 1540 1541 1542
251 6 1444 1445 1446 1543 1544 1545
252 6 1447 1448 1449 1546 1547 1548
253 6 1450 1451 1452 1549 1550 1551
254 6 1453 1454 1455 1552 1553 1554
255 6 1456 1457 1458 1555 1556 1557
256 6 1459 1460 1461 1558 1559 1560
257 6 1462 1463 1464 1561 1562 1563
258 6 1465 1466 1467 1564 1565 1566
259 6 1468 1469 1470 1567 1568 1569
260 6 1471 1472 1473 1570 1571 1572
261 6 1474 1475 1476 1573 1574 1575
262 6 1477 1478 1479 1576 1577 1578
263 6 1480 1481 1482 1579 1580 1581
264 6 1483 1484 1485 1582 1583 1584
265 artificial
266 artificial
267 artificial
268 artificial
269 artificial
270 artificial
271 artificial
272 artificial
273 artificial
274 artificial
275 artificial
276 artificial
277 artificial
278 artificial
279 artificial
280 artificial
281 artificial
282 artificial
283 artificial
284 artificial
285 artificial
286 artificial
287 artificial
288 artificial


arcs_distances
0 8 265 2.50 266 5.59 267 10.31 268 15.21 269 20.16 270 25.12 271 30.10 272 35.09
1 2 2 1.00 265 2.00
2 2 3 1.00 1 1.00
3 2 4 1.00 2 1.00
4 2 5 1.00 3 1.00
5 2 6 1.00 4 1.00
6 2 7 1.00 5 1.00
7 2 8 1.00 6 1.00
8 2 9 1.00 7 1.00
9 2 10 1.00 8 1.00
10 2 11 1.00 9 1.00
11 2 12 1.00 10 1.00
12 2 13 1.00 11 1.00
13 2 14 1.00 12 1.00
14 2 15 1.00 13 1.00
15 2 16 1.00 14 1.00
16 2 17 1.00 15 1.00
17 2 16 1.00 273 2.00